14° run output:
{
    "Function": "kroB300.tsp",
    "Problem dimension": [
        199,
        156,
        141,
        231,
        179,
        259,
        4,
        204,
        224,
        210,
        277,
        131,
        61,
        256,
        137,
        49,
        54,
        298,
        9,
        282,
        299,
        17,
        91,
        260,
        136,
        222,
        62,
        236,
        125,
        82,
        63,
        13,
        216,
        230,
        127,
        206,
        247,
        174,
        244,
        10,
        72,
        19,
        66,
        0,
        37,
        116,
        71,
        153,
        113,
        241,
        173,
        148,
        100,
        46,
        280,
        249,
        31,
        25,
        140,
        195,
        95,
        115,
        164,
        88,
        151,
        197,
        269,
        132,
        73,
        65,
        183,
        263,
        242,
        130,
        177,
        56,
        202,
        47,
        155,
        274,
        154,
        201,
        248,
        76,
        109,
        254,
        243,
        294,
        286,
        68,
        196,
        39,
        239,
        245,
        207,
        198,
        295,
        34,
        60,
        128,
        293,
        122,
        107,
        144,
        11,
        223,
        90,
        96,
        240,
        114,
        233,
        220,
        24,
        93,
        175,
        211,
        246,
        32,
        264,
        296,
        119,
        12,
        215,
        229,
        165,
        250,
        83,
        162,
        261,
        120,
        81,
        111,
        171,
        35,
        237,
        118,
        102,
        181,
        1,
        192,
        159,
        160,
        26,
        278,
        94,
        253,
        42,
        108,
        265,
        43,
        147,
        75,
        208,
        275,
        221,
        292,
        270,
        138,
        123,
        80,
        182,
        50,
        267,
        146,
        3,
        14,
        67,
        79,
        232,
        186,
        266,
        289,
        235,
        64,
        112,
        271,
        180,
        214,
        272,
        288,
        213,
        57,
        106,
        217,
        38,
        69,
        281,
        92,
        189,
        84,
        251,
        55,
        297,
        22,
        53,
        225,
        5,
        133,
        169,
        145,
        218,
        268,
        74,
        149,
        226,
        105,
        101,
        41,
        51,
        48,
        36,
        158,
        257,
        87,
        258,
        126,
        85,
        190,
        287,
        273,
        290,
        78,
        70,
        33,
        20,
        2,
        157,
        121,
        255,
        99,
        29,
        185,
        262,
        142,
        276,
        167,
        291,
        6,
        45,
        98,
        59,
        103,
        285,
        18,
        219,
        203,
        117,
        205,
        234,
        228,
        44,
        176,
        163,
        279,
        238,
        184,
        134,
        129,
        227,
        187,
        172,
        284,
        21,
        193,
        52,
        28,
        110,
        188,
        27,
        7,
        200,
        283,
        166,
        8,
        89,
        97,
        209,
        23,
        16,
        191,
        40,
        152,
        30,
        194,
        212,
        139,
        124,
        170,
        178,
        58,
        135,
        252,
        168,
        86,
        104,
        77,
        150,
        161,
        143,
        15
    ],
    "Global Optimum": 0,
    "Algorithm": "Genetic algorithm",
    "Parameters": {
        "population": 30,
        "offspring": 30,
        "mutation probability": 0.0033333333333333335,
        "crossover probability": 0.9
    },
    "Fitness": 251957,
    "Solution": [
        199,
        156,
        141,
        231,
        179,
        259,
        4,
        204,
        224,
        210,
        277,
        131,
        61,
        256,
        137,
        49,
        54,
        298,
        9,
        282,
        299,
        17,
        91,
        260,
        136,
        222,
        62,
        236,
        125,
        82,
        63,
        13,
        216,
        230,
        127,
        206,
        247,
        174,
        244,
        10,
        72,
        19,
        66,
        0,
        37,
        116,
        71,
        153,
        113,
        241,
        173,
        148,
        100,
        46,
        280,
        249,
        31,
        25,
        140,
        195,
        95,
        115,
        164,
        88,
        151,
        197,
        269,
        132,
        73,
        65,
        183,
        263,
        242,
        130,
        177,
        56,
        202,
        47,
        155,
        274,
        154,
        201,
        248,
        76,
        109,
        254,
        243,
        294,
        286,
        68,
        196,
        39,
        239,
        245,
        207,
        198,
        295,
        34,
        60,
        128,
        293,
        122,
        107,
        144,
        11,
        223,
        90,
        96,
        240,
        114,
        233,
        220,
        24,
        93,
        175,
        211,
        246,
        32,
        264,
        296,
        119,
        12,
        215,
        229,
        165,
        250,
        83,
        162,
        261,
        120,
        81,
        111,
        171,
        35,
        237,
        118,
        102,
        181,
        1,
        192,
        159,
        160,
        26,
        278,
        94,
        253,
        42,
        108,
        265,
        43,
        147,
        75,
        208,
        275,
        221,
        292,
        270,
        138,
        123,
        80,
        182,
        50,
        267,
        146,
        3,
        14,
        67,
        79,
        232,
        186,
        266,
        289,
        235,
        64,
        112,
        271,
        180,
        214,
        272,
        288,
        213,
        57,
        106,
        217,
        38,
        69,
        281,
        92,
        189,
        84,
        251,
        55,
        297,
        22,
        53,
        225,
        5,
        133,
        169,
        145,
        218,
        268,
        74,
        149,
        226,
        105,
        101,
        41,
        51,
        48,
        36,
        158,
        257,
        87,
        258,
        126,
        85,
        190,
        287,
        273,
        290,
        78,
        70,
        33,
        20,
        2,
        157,
        121,
        255,
        99,
        29,
        185,
        262,
        142,
        276,
        167,
        291,
        6,
        45,
        98,
        59,
        103,
        285,
        18,
        219,
        203,
        117,
        205,
        234,
        228,
        44,
        176,
        163,
        279,
        238,
        184,
        134,
        129,
        227,
        187,
        172,
        284,
        21,
        193,
        52,
        28,
        110,
        188,
        27,
        7,
        200,
        283,
        166,
        8,
        89,
        97,
        209,
        23,
        16,
        191,
        40,
        152,
        30,
        194,
        212,
        139,
        124,
        170,
        178,
        58,
        135,
        252,
        168,
        86,
        104,
        77,
        150,
        161,
        143,
        15
    ],
    "Nb of functions evaluations": 400020,
    "Computational time in seconds": 678.6141052246094,
    "Stopping criterion in evaluations": 400000
}